c Lingeling SAT Solver
c 
c Version ala b02aa1a04343558c4252b5f4a723be021964f652
c 
c Copyright (C) 2010-2012 Armin Biere JKU Linz Austria.
c All rights reserved.
c 
c released Sat Oct 13 14:05:26 CEST 2012
c compiled Sat Feb 16 02:48:12 EST 2013
c 
c gcc (Debian 4.4.5-8) 4.4.5
c -Wall -O3 -DNLGLOG -DNDEBUG -DNCHKSOL -DNLGLPICOSAT 
c Linux greencar2 2.6.32-5-amd64 x86_64
c 
c reading input file p13.cnf
c no embedded options
c found 'p cnf 196471 610075' header
c read 196471 variables, 610075 clauses, 1268413 literals in 0.0 seconds
c
c feature vars 196471
c feature lits.total 1268413
c feature lits.pos 675077
c feature lits.neg 593336
c feature clauses.total 610075
c feature clauses.unit 73479
c feature clauses.bin 428854
c feature clauses.trn 106342
c feature clauses.lrg 1400
c feature cog.val.min 1
c feature cog.val.avg 87616
c feature cog.val.max 189595
c feature cog.var.min 1
c feature cog.var.avg 98236
c feature cog.var.max 196470
c
c
c --abstime=0
c --acts=2
c --actavgmax=120
c --actstdmin=20
c --actstdmax=80
c --agile=23
c --bias=2
c --block=1
c --blkrtc=0
c --blkclslim=2000
c --blkocclim=2000
c --blkmaxeff=2147483647
c --blkmineff=10000000
c --blkreleff=20
c --card=0
c --cce=3
c --ccemaxeff=100000000
c --ccemineff=5000000
c --ccereleff=3
c --check=0
c --cgrclsr=1
c --cgrmaxority=20
c --cgrmaxeff=8000000
c --cgrmineff=200000
c --cgreleff=1
c --cgrexteq=1
c --cgrextand=1
c --cgrextunits=1
c --cgrextite=1
c --cgrextxor=1
c --cliff=1
c --cliffreleff=8
c --cliffmineff=10000000
c --cliffmaxeff=100000000
c --compact=0
c --decompose=1
c --defragint=10000000
c --defragfree=50
c --elim=1
c --elmrtc=0
c --elmblk=1
c --elmclslim=1000
c --elmocclim=1000
c --elmaxeff=100000000
c --elmineff=5000000
c --elmreleff=10
c --sleeponabort=0
c --exitonabort=0
c --flipping=1
c --flipint=2
c --flipdur=50
c --fliptop=1
c --force=0
c --gauss=1
c --gaussextrall=1
c --gaussmaxor=20
c --gaussexptrn=1
c --gaussmaxeff=50000000
c --gaussmineff=2000000
c --gaussreleff=2
c --gluescale=2
c --gluekeep=0
c --inprocessing=1
c --cintinc=10000
c --irrlim=20
c --lift=1
c --lftmaxeff=20000000
c --lftmineff=500000
c --lftreleff=6
c --lhbr=1
c --lkhd=1
c --clim=-1
c --mocint=1000
c --move=2
c --log=-1
c --otfs=1
c --phase=0
c --phaseneginit=0
c --plain=0
c --probe=1
c --prbasicmaxeff=100000000
c --prbasicmineff=1000000
c --prbasicreleff=10
c --prbasic=1
c --prbasicroundlim=9
c --queuemergelim=10000
c --queuefactor=833
c --queueinc=20
c --rmincpen=4
c --seed=0
c --smallirr=90
c --smallve=1
c --smallvevars=12
c --randec=1
c --randecint=1000
c --redfixed=0
c --redlbound=0
c --redlexpfac=10
c --redldoutfac=0
c --redloutinc=10000
c --redlinit=1000
c --redlinc=1000
c --redinoutinc=100
c --redlmininc=10
c --redlmaxinc=200
c --redlminrel=10
c --redlmaxrel=300
c --redlminabs=500
c --redlmaxabs=1000000
c --reduce=1
c --restart=2
c --restartint=5
c --rstinoutinc=110
c --simplify=1
c --simpdelay=100
c --simpen=4
c --sizepen=1000000
c --sizemaxpen=3
c --sortlits=0
c --syncint=111111
c --termint=122222
c --ternres=1
c --ternresrtc=0
c --trnrmineff=4000000
c --trnrmaxeff=40000000
c --trnreleff=10
c --transred=1
c --trdmineff=100000
c --trdmaxeff=2000000
c --trdreleff=10
c --unhide=1
c --unhdextstamp=1
c --unhdhbr=0
c --unhdmaxeff=20000000
c --unhdmineff=1000000
c --unhdreleff=4
c --unhdlnpr=3
c --unhdroundlim=5
c --verbose=1
c --witness=1
c [limits] no conflict limit
c [limits] simplification delayed by 100 to 100 conflicts
c 
c  seconds         irredundant          redundant clauses agility   height
c          variables clauses conflicts large binary ternary    glue         MB
c 
c *    0.0  108742   457934         0       0      0     0  58  0.0   0.0   40
c [cut-width] 152731, max 235734, min4 105660 at 75%, min10 27000 at 85%
c [decision-order] bias 1, old 1
c [queue-schedule-all-variables]
c s    0.0  108742   457934         0       0      0     0  58  0.0   0.0   40
c [simplification-1] limit hit at 100 conflicts
c [simplification-1] simplification penalty of 4
c [ternres-1] limit 4000000 with penalty 0 = 0 + 0
c [ternres-1] all 108742 free variables schedulable
c [ternres-1] 0 ternary resolvents (0 bin, 0 trn)
c [ternres-1] 16566 variables remain 15% (92176 retained)
c [gauss-1] limit 2000000 penalty 0 = 0 + 0
c [gauss-1] extracted 165340 xors of average arity 2.0
c [gauss-1] connected 330681 occurrences of 72040 variables (average 4.6)
c [gauss-1] limit 2000000 penalty 0 = 0 + 0
c [gauss-1] exported 0 unary, 0 binary and 0 ternary equations
c G    0.5  108742   439881       100      99      0     1  72  4.2 397.8   26
c d    0.7   50421   229497       100      99      0     0  72  4.2 397.8   20
c [basicprobe-1] limit 1000000 penalty 0 = 0 + 0
c [basicprobe-1-0] 3037 probes remain 6% after last round
c [basicprobe-1-0] removed 0 variables, found 411 hbrs
c p    0.7   50421   229497       100      99    411     0  72  4.2 397.8   23
c [cgrclsr-1] limit 200000 penalty 0 = 0 + 0
c [cgrclsr-1] all 50421 free variables schedulable
c [cgrclsr-1] fully completed congruence closure
c [lift-1] limit 500000 with penalty 0 = 0 + 0
c [lift-1] using 50421 probes 100%
c [lift-1] 50392 variables remain 100% (29 retained)
c [cliff-1] limit of 10000000 steps penalty 0 = 0 + 0
c [cliff-1] failed 0, lifted 0
c [unhide-1] limit 1000000 with penalty 0 = 0 + 0
c [unhide-1-1] 0 units, 0 failed, 17682 tauts, 0 hbrs, 99 literals
c u    1.3   50421   211815       100      99  19477     0  72  4.2 397.8   24
c [transred-1] limit 100000 with penalty 0 = 0 + 0
c t    1.3   50421   211815       100      99  19470     0  72  4.2 397.8   24
c [block-1] scheduling all variables this time
c [block-1] scheduled 50421 variables 100%
c [block-1] limit of 10000000 steps penalty 0 = 0 + 0
c [block-1] fully completed blocked clause elimination
c [block-1] transition to [ all 0 rem 0 ] state
c [block-1] eliminated 3600 blocked clauses
c k    1.4   50421   208215       100      99  19470  3600  72  4.2 397.8   20
c [cce-1] scheduling all variables this time
c [cce-1] limit of 10000000 steps penalty 0 = 0 + 0
c [cce-1] incomplete covered clause elimination 45710 not tried 91%
c [cce-1] transition to [ all 1 rem 1 ] state
c [cce-1] eliminated 47 covered clauses
c E    1.8   50418   208168       100      99  26679  3600  72  4.2 397.8   20
c [elim-1] scheduling all variables this time
c [elim-1] scheduled 50418 variables 100%
c [elim-1] limit of 5000000 steps penalty 0 = 0 + 0
c [elim-1] incomplete variable elimination 36962 not tried 73%
c [elim-1] transition to [ all 1 rem 1 ] state
c [elim-1] eliminated 5128 = 10% variables out of 50418
c e    2.7   45290   204958       100      47  10304   519  72  4.2 397.8   20
c [phase-1] phase bias: 1794 positive 14%, 11370 negative 86%
c [simplification-1] removed 63452 variables 58%
c [simplification-1] limit increments divided by 30
c [simplification-1] arithmetic increase of conflict limit interval by 333
c [simplification-1] new irredundant limit 2000403
c [simplification-1] new conflict limit 433
c [simplification-1] simplification penalty reduced to 3
c R    2.8   45290   204958       413     328  10314   541   8  6.7 328.6   24
c [simplification-2] limit hit at 433 conflicts
c [simplification-2] simplification penalty of 3
c [ternres-2] limit 2000000 with penalty 1 = 1 + 0
c [ternres-2] 6917 schedulable variables 15%
c [ternres-2] 2 ternary resolvents (0 bin, 2 trn)
c [ternres-2] fully completed ternary resolution
c T    2.9   45290   204958       433     345  10315   544   9  6.7 305.2   24
c [gauss-2] limit 1000000 penalty 1 = 1 + 0
c [gauss-2] extracted 456 xors of average arity 3.0
c [gauss-2] connected 1368 occurrences of 891 variables (average 1.5)
c [gauss-2] limit 1000000 penalty 1 = 1 + 0
c [gauss-2] fully completed
c [gauss-2] exported 0 unary, 0 binary and 0 ternary equations
c G    2.9   45290   204958       433     345  10315   544   9  6.7 305.2   20
c [basicprobe-2] limit 500000 penalty 1 = 1 + 0
c [basicprobe-2-0] 3220 probes remain 7% after last round
c [basicprobe-2-0] removed 0 variables, found 730 hbrs
c p    3.0   45290   204958       433     345  11045   543   9  6.7 305.2   23
c [cgrclsr-2] limit 100000 penalty 1 = 1 + 0
c [cgrclsr-2] all 45290 free variables schedulable
c [cgrclsr-2] fully completed congruence closure
c [lift-2] limit 250000 with penalty 1 = 1 + 0
c [lift-2] using 45263 probes 100%
c [lift-2] 45246 variables remain 100% (44 retained)
c [cliff-2] limit of 5000000 steps penalty 1 = 1 + 0
c [cliff-2] failed 0, lifted 0
c [unhide-2] limit 1000000 with penalty 0 = 0 + 0
c [unhide-2-2] 0 units, 0 failed, 892 tauts, 0 hbrs, 114 literals
c u    3.4   45290   204956       433     344  10352   543   9  6.7 305.2   23
c [transred-3] limit 100000 with penalty 0 = 0 + 0
c t    3.4   45290   204956       433     344  10345   543   9  6.7 305.2   23
c [block-2] scheduling all variables this time
c [block-2] scheduled 45290 variables 100%
c [block-2] limit of 10000000 steps penalty 0 = 0 + 0
c [block-2] fully completed blocked clause elimination
c [block-2] transition to [ all 0 rem 0 ] state
c [block-2] eliminated 0 blocked clauses
c [cce-2] 42911 variables 95% will be scheduled this time
c [cce-2] limit of 10000000 steps penalty 0 = 0 + 0
c [cce-2] 42327 variables 93% remain to be tried next time
c [cce-2] transition to [ all 0 rem 1 ] state
c [cce-2] eliminated 317 covered clauses
c E    3.9   45290   204639       433     344  10717   543   9  6.7 305.2   20
c [elim-2] 36925 variables 82% will be scheduled this time
c [elim-2] scheduled 36925 variables 82%
c [elim-2] limit of 5000000 steps penalty 0 = 0 + 0
c [elim-2] 27051 variables 60% remain to be tried next time
c [elim-2] transition to [ all 0 rem 1 ] state
c [elim-2] eliminated 914 = 2% variables out of 45290
c e    4.8   44376   204331       433     300   6673   540   9  6.7 305.2   20
c [phase-2] phase bias: 7 positive 100%, 0 negative 0%
c [simplification-2] removed 914 variables 2%
c [simplification-2] limit increments divided by 2
c [simplification-2] arithmetic increase of conflict limit interval by 5000
c [simplification-2] new irredundant limit 2000403
c [simplification-2] new conflict limit 5766
c [simplification-2] simplification penalty reduced to 2
c 1    5.0   44376   204331       862     648   6697   589   4  6.2 262.7   24
c 
c  seconds         irredundant          redundant clauses agility   height
c          variables clauses conflicts large binary ternary    glue         MB
c 
c blkd: 2 bces, 3600 removed, 1203482 resolutions, 3370582 steps
c blkd: 3600 blocking literals 1%, 0 pure
c cces: 2 cces, 351 eliminated, 351 ate 100%, 0 abce 0%
c cces: 10590 probed, 1 lifted, 3 failed
c clff: 2 cliffs, 0 lifted, 0 failed
c clff: 5242 decisions, 15007593 steps
c clls: 1 sat, 0 simp, 0 freeze, 0 melt
c clls: 1878488 add, 0 assume,, 0 deref, 0 failed
c clls: 0 cassume, 0 mosat
c coll: 11 gcs, 0 rescored clauses
c cgrs: 2 count, 300050 esteps, 62217 csteps
c cgrs: 0 eqs, 0 units
c cgrs: 0 matched (0 ands 0%, 0 xors 0%, 0 ites 0%)
c cgrs: 0 simplified (0 ands 0%, 0 xors 0%, 0 ites 0%)
c cgrs: 1870 extracted (1577 ands 84%, 293 xors 16%, 0 ites 0%)
c dcps: 2 decompositions, 58321 equivalent 30%
c decs: 16280 decision, 16 random 0.098%
c decs: 2306 flipped 14.165% (in 5 phases)
c elms: 2 elims, 6042 eliminated 3%
c elms: 6042 small 100%, 0 large 0%
c elms: 23451 tried small, 6042 succeeded 26%, 17409 failed 74%
c elms: 0 subsumed, 0 strengthened, 0 blocked
c elms: 309847 copies, 219520 resolutions, 652142 ipos
c elms: 0 subchks, 0 strchks
c frcs: 0 computed, 25.8 - 74.2 average min-cut range
c gaus: 2 extractions, 165796 extracted, 2.0 size, 3 max
c gaus: exported 0 units, 0 binary and 0 ternary equations
c gaus: 0 gc, 6000078 steps, 3000039 extr 50%, 2260643 elim 38%
c glue: 6.3 avg, 2.5 scaled avg
c glue: 0 maxredglue=15 (0%)
c lift: 2 phases, 276 probed (92 level1 33%, 184 level2 67%)
c lift: 0 units, 0 equivalences, 0 implications
c hbrs: 27635 hbrs = 27635 trn 100% + 0 lrg 0%, 1 sub 0%
c lrnd: 853 clauses, 570 uips 67%, 25.9 length, 6.3 glue
c ints: 63 luby (4671 steps), 0 inout (0 steps)
c mins: 22123 learned lits, 4% minimized
c move: moved 3951, 351 binary 9%, 3600 ternary 91%
c otfs: str 26 dyn (20 red, 6 irr) 9 drv 35%, 17 rst 65%
c otfs: sub 0 dyn (0 red, 0 irr)
c phas: 2 computed, 13373 set, 1801 pos (13%), 11572 neg (87%)
c prbs: 2 basic, 1800 probed, 0 failed, 0 lifted
c prps: 7631991 props, 111 props/dec
c prps: 24% srch, 76% simp, 0% lkhd
c psns: 106706 searches, 14598 hits, 14% hit rate
c queu: 3221 new, 1104 del, 112 maximum priority
c queu: 2101 merged, 1143 collected, 2 gcs
c queu: 879 deprioritized, 23.2 lines on average
c reds: 0 count, 0 reset, 0 acts 0%, 0 exp 0%
c reds: 0 arithmetic 0%, 0 double 0%
c rmbd: 2 removed, 0 red 0%
c rsts: 32 restarts 52%, 30 skipped 48%
c rsts: 8 kept 25.0% average 36.8%
c simp: 2 count (0 ilim 0%, 0 plim 0%, 2 clim 100%)
c trnr: 2 count, 0 bin, 2 trn, 4597693 steps
c tops: 87732 fixed 45%, 0 iterations
c trds: 4 transitive reductions, 14 removed, 0 failed
c trds: 211 nodes, 293 edges, 201813 steps
c unhd: 2 count, 2 rounds, 2172125 steps
c unhd: 0 non-trivial sccs of average size 0.0
c unhd: 0 units, 0 bin, 0 trn, 0 lrg
c unhd: 0 failed, 0 stamp, 0 lits, 0 bin, 0 trn, 0 lrg
c unhd: 18574 tauts, 0 bin 0%, 0 trn 0%, 0 lrg 0%
c unhd: 18574 tauts, 18574 stamp 100%, 892 red 5%
c unhd: 0 hbrs, 0 trn 0%, 0 lrg 0%, 0 red 0%
c unhd: 213 strd, 0 bin 0%, 0 trn 0%, 213 lrg 100%, 213 red 100%
c vars: 44376 remaining 23% and 152095 removed 77% out of 196471
c vars: 87732 fixed 45%, 6042 eliminated 3%, 58321 equivalent 30%
c vsts: 35221739 visits, 25% srch, 75% simp, 0% lkhd
c vsts: 4.8 search visits per propagation 10063.4 per conflict
c wchs: 6937453 pushed, 3226287 enlarged, 19 defrags
c 
c scaledglue  added       reduced       forcing      resolved     conflicts
c 
c all       748 100         0 100      3136 100      1279 100        94 100
c 
c  0          0   0         0   0<        0   0         0   0         0   0 
c  1          4   1         0   0        36   1         5   0         0   0 
c  2        270  36         0   0      1163  37       352  28        18  19 
c  3        310  41<        0   0      1632  52<      625  49<       45  48<
c  4        138  18         0   0       265   8       259  20        28  30 
c  5         19   3         0   0        33   1        28   2         3   3 
c  6          5   1         0   0         5   0         7   1         0   0 
c  7          1   0         0   0         1   0         2   0         0   0 
c  8          1   0         0   0         1   0         1   0         0   0 
c  9          0   0         0   0         0   0         0   0         0   0 
c 10          0   0         0   0         0   0         0   0         0   0 
c 11          0   0         0   0         0   0         0   0         0   0 
c 12          0   0         0   0         0   0         0   0         0   0 
c 13          0   0         0   0         0   0         0   0         0   0 
c 14          0   0         0   0         0   0         0   0         0   0 
c 15          0   0         0   0         0   0         0   0         0   0 
c 
c avg             2.9           0.0           2.7           3.0           3.2
c std             0.9           0.0           0.7           0.8           0.8
c 
c 16280 decisions, 862 conflicts, 171.3 conflicts/sec
c 7631991 propagations, 1.5 megaprops/sec
c 5.0 seconds, 46.0 MB
c 
c    0.056   1% analysis
c    0.220   4% block
c    0.004   0% bump
c    0.000   0% card
c    0.716  14% cce
c    0.488  10% cliff
c    0.012   0% cutwidth
c    0.012   0% decide
c    0.000   0% force
c    0.420   8% gc
c    0.152   3% cgrclsr
c    0.196   4% decomp
c    0.120   2% defrag
c    1.856  37% elim
c    0.524  10% gauss
c    0.160   3% lift
c    0.008   0% mincls
c    0.044   1% phase
c    0.076   2% probe
c    0.000   0% reduce
c    0.008   0% restart
c    0.068   1% ternres
c    0.008   0% transred
c    0.152   3% unhide
c ==================================
c    0.012   0% preprocessing     0%
c    4.732  94% inprocessing    100%
c ==================================
c    4.744  94% simplifying
c    0.000   0% lookahead
c    0.280   6% search
c ==================================
c    5.032 100% all
c
s SATISFIABLE
